p tw 172 628
0 1
0 23
0 100
0 152
0 153
0 168
0 171
1 19
1 69
1 99
1 103
1 122
1 123
2 3
2 4
2 96
2 150
3 4
3 97
3 115
3 149
4 71
4 72
4 73
4 74
5 6
5 7
5 8
5 9
5 61
5 130
5 145
6 7
6 8
6 9
6 57
6 142
6 143
6 144
7 8
7 9
7 60
7 91
7 131
7 132
7 133
7 134
8 9
8 53
9 58
9 116
9 129
9 140
10 11
10 12
10 14
10 63
10 132
10 141
10 143
10 155
11 12
11 28
12 62
12 119
13 14
13 53
13 131
13 140
13 144
13 145
13 162
14 63
14 132
14 141
14 143
14 155
15 16
15 125
15 126
15 127
15 128
15 129
15 130
16 165
16 166
17 18
17 84
17 124
18 27
18 37
18 46
18 47
18 48
18 49
19 20
19 21
19 22
19 23
19 24
19 25
19 69
19 99
19 103
19 122
19 123
20 21
20 22
20 23
20 24
20 25
20 106
21 22
21 23
21 24
21 25
21 68
21 102
21 151
21 158
22 23
22 24
22 25
22 77
22 139
23 24
23 25
23 100
23 152
23 153
23 168
23 171
24 25
24 70
24 75
24 78
24 79
25 44
25 76
25 101
26 27
26 85
27 37
27 46
27 47
27 48
27 49
28 62
28 63
28 64
28 65
28 66
28 67
29 30
29 31
29 32
29 33
29 34
29 35
29 36
29 37
29 38
29 39
29 40
29 41
30 31
30 32
30 33
30 34
30 35
30 156
31 32
31 33
31 34
31 35
31 45
31 146
31 147
31 148
32 33
32 34
32 35
32 89
33 34
33 35
33 48
33 105
33 157
33 161
34 35
34 54
34 55
34 56
35 49
36 37
36 38
36 39
36 40
36 41
36 54
36 89
36 148
36 161
37 38
37 39
37 40
37 41
37 46
37 47
37 48
37 49
38 39
38 40
38 41
38 55
38 80
38 147
38 157
39 40
39 41
39 81
39 104
39 105
40 41
40 82
40 106
41 150
42 43
42 94
42 109
42 110
42 111
42 112
42 113
43 95
43 120
43 154
43 164
44 45
44 76
44 101
45 146
45 147
45 148
46 47
46 48
46 49
46 117
46 124
47 48
47 49
47 83
47 84
47 85
47 86
47 87
47 88
48 49
48 105
48 157
48 161
50 51
50 52
50 56
50 138
50 146
50 156
50 167
50 168
51 52
51 137
51 153
52 152
53 131
53 140
53 144
53 145
53 162
54 55
54 56
54 89
54 148
54 161
55 56
55 80
55 147
55 157
56 138
56 146
56 156
56 167
56 168
57 58
57 59
57 60
57 61
57 142
57 143
57 144
58 59
58 60
58 61
58 116
58 129
58 140
59 60
59 61
59 92
59 169
60 61
60 91
60 131
60 132
60 133
60 134
61 130
61 145
62 63
62 64
62 65
62 66
62 67
62 119
63 64
63 65
63 66
63 67
63 132
63 141
63 143
63 155
64 65
64 66
64 67
64 118
65 66
65 67
65 99
66 67
66 79
66 123
66 136
66 151
67 68
67 69
67 70
68 69
68 70
68 102
68 151
68 158
69 70
69 99
69 103
69 122
69 123
70 75
70 78
70 79
71 72
71 73
71 74
71 110
71 149
71 163
71 164
72 73
72 74
72 93
72 94
72 95
72 96
72 97
72 98
73 74
73 87
73 113
73 120
73 121
74 88
74 109
74 154
75 76
75 77
75 78
75 79
76 77
76 101
77 139
78 79
78 100
78 101
78 102
78 103
79 123
79 136
79 151
80 81
80 82
80 147
80 157
81 82
81 104
81 105
82 106
83 84
83 85
83 86
83 87
83 88
83 117
84 85
84 86
84 87
84 88
84 124
85 86
85 87
85 88
86 87
86 88
86 112
87 88
87 113
87 120
87 121
88 109
88 154
89 148
89 161
90 91
90 92
90 98
91 92
91 131
91 132
91 133
91 134
92 169
93 94
93 95
93 96
93 97
93 98
93 108
93 114
93 127
93 159
93 163
93 165
94 95
94 96
94 97
94 98
94 109
94 110
94 111
94 112
94 113
95 96
95 97
95 98
95 120
95 154
95 164
96 97
96 98
96 150
97 98
97 115
97 149
99 103
99 122
99 123
100 101
100 102
100 103
100 152
100 153
100 168
100 171
101 102
101 103
102 103
102 151
102 158
103 122
103 123
104 105
104 121
105 157
105 161
107 108
107 125
108 114
108 127
108 159
108 163
108 165
109 110
109 111
109 112
109 113
109 154
110 111
110 112
110 113
110 149
110 163
110 164
111 112
111 113
111 114
112 113
113 120
113 121
114 127
114 159
114 163
114 165
115 116
115 149
116 129
116 140
117 124
118 155
119 141
120 121
120 154
120 164
122 123
122 158
123 136
123 151
125 126
125 127
125 128
125 129
125 130
126 127
126 128
126 129
126 130
126 162
127 128
127 129
127 130
127 159
127 163
127 165
128 129
128 130
128 160
128 166
129 130
129 140
130 145
131 132
131 133
131 134
131 140
131 144
131 145
131 162
132 133
132 134
132 141
132 143
132 155
133 134
133 135
133 142
133 169
134 139
135 136
135 142
135 169
136 151
137 138
137 153
138 146
138 156
138 167
138 168
140 144
140 145
140 162
141 143
141 155
142 143
142 144
142 169
143 144
143 155
144 145
144 162
145 162
146 147
146 148
146 156
146 167
146 168
147 148
147 157
148 161
149 163
149 164
151 158
152 153
152 168
152 171
153 168
153 171
154 164
156 167
156 168
157 161
159 160
159 163
159 165
160 166
163 164
163 165
165 166
167 168
167 170
168 171
170 171
